set VV := 0 1 2 3 4 5 6 7 8 9 10 11 12 13 14 15 16 17 18 19 20 21 22 23 ;
set VS := 0 1 2 3 4 5 6 7 8 9 10 11 12 13 14 15 16 17 18 19 20 21 22 23 24 25 26 27 28 29 30 31 32 33 34 35 36 37 38 39 40 41 42 43 44 45 46 47 48 49 50 51 52 ;
param cv := 
0 14
1 21
2 12
3 24
4 22
5 25
6 20
7 24
8 16
9 23
10 11
11 21
12 19
13 23
14 13
15 22
16 20
17 24
18 25
19 11
20 25
21 19
22 18
23 14
;
param cs := 
0 34
1 36
2 30
3 40
4 23
5 39
6 25
7 40
8 29
9 25
10 24
11 32
12 39
13 27
14 32
15 25
16 21
17 22
18 33
19 37
20 20
21 23
22 27
23 24
24 27
25 26
26 21
27 33
28 29
29 38
30 20
31 22
32 40
33 40
34 35
35 39
36 37
37 39
38 38
39 34
40 40
41 24
42 34
43 24
44 32
45 34
46 31
47 34
48 22
49 26
50 33
51 27
52 38
;
param bv:	 0 1 2 3 4 5 6 7 8 9 10 11 12 13 14 15 16 17 18 19 20 21 22 23 := 
		0 0 0 0 0 24 0 0 0 0 19 0 0 0 0 0 0 0 17 0 0 0 0 0 14 
		1 0 0 0 0 0 13 0 0 0 0 0 19 0 0 0 0 0 0 0 0 0 0 0 0 
		2 0 0 0 0 0 0 12 0 0 0 13 0 12 0 25 0 0 0 0 0 0 0 0 0 
		3 0 0 0 0 0 0 0 0 15 0 0 0 0 0 0 20 0 0 0 0 0 0 0 0 
		4 0 0 0 0 0 0 0 0 0 0 0 0 17 0 0 0 0 0 0 0 0 0 0 0 
		5 0 0 0 0 0 0 0 0 0 0 17 0 0 0 0 0 0 0 0 0 25 0 0 25 
		6 0 0 0 0 0 0 0 0 0 0 0 0 0 0 0 0 0 0 0 0 0 0 0 0 
		7 0 0 0 0 0 0 0 0 17 0 0 0 0 0 0 0 0 0 0 0 0 0 0 0 
		8 0 0 0 0 0 0 0 0 0 0 0 0 0 0 21 0 0 0 24 0 17 0 0 0 
		9 0 0 0 0 0 0 0 0 0 0 0 0 0 0 0 0 23 0 0 18 0 0 0 0 
		10 0 0 0 0 0 0 0 0 0 0 0 0 0 0 0 0 0 0 0 0 0 0 13 0 
		11 0 0 0 0 0 0 0 0 0 0 0 0 0 0 0 0 0 0 0 0 0 0 0 0 
		12 0 0 0 0 0 0 0 0 0 0 0 0 0 0 0 0 0 0 0 0 0 0 0 0 
		13 0 0 0 0 0 0 0 0 0 0 0 0 0 0 0 0 0 0 0 0 0 0 0 24 
		14 0 0 0 0 0 0 0 0 0 0 0 0 0 0 0 0 0 0 0 21 0 0 0 0 
		15 0 0 0 0 0 0 0 0 0 0 0 0 0 0 0 0 0 0 0 0 0 0 0 0 
		16 0 0 0 0 0 0 0 0 0 0 0 0 0 0 0 0 0 0 0 13 23 0 0 0 
		17 0 0 0 0 0 0 0 0 0 0 0 0 0 0 0 0 0 0 0 0 0 0 0 0 
		18 0 0 0 0 0 0 0 0 0 0 0 0 0 0 0 0 0 0 0 25 0 13 0 0 
		19 0 0 0 0 0 0 0 0 0 0 0 0 0 0 0 0 0 0 0 0 0 0 0 0 
		20 0 0 0 0 0 0 0 0 0 0 0 0 0 0 0 0 0 0 0 0 0 0 0 0 
		21 0 0 0 0 0 0 0 0 0 0 0 0 0 0 0 0 0 0 0 0 0 0 0 15 
		22 0 0 0 0 0 0 0 0 0 0 0 0 0 0 0 0 0 0 0 0 0 0 0 0 
		23 0 0 0 0 0 0 0 0 0 0 0 0 0 0 0 0 0 0 0 0 0 0 0 0 
;
param bs:	 0 1 2 3 4 5 6 7 8 9 10 11 12 13 14 15 16 17 18 19 20 21 22 23 24 25 26 27 28 29 30 31 32 33 34 35 36 37 38 39 40 41 42 43 44 45 46 47 48 49 50 51 52 := 
		0 0 0 0 0 0 34 0 0 0 0 0 0 0 38 24 0 37 26 0 0 0 0 24 0 0 0 34 0 0 0 0 38 0 0 0 0 0 0 0 0 0 35 29 0 0 0 0 0 37 0 25 0 0 
		1 0 0 0 0 0 0 0 27 0 0 0 0 0 0 0 0 23 0 0 0 0 0 0 0 0 0 0 0 0 0 0 0 0 0 0 0 0 0 0 0 0 0 0 0 0 0 0 23 0 0 0 0 0 
		2 0 0 0 0 0 0 0 0 0 0 0 25 0 20 0 0 0 0 0 28 0 0 0 21 0 0 0 0 0 22 0 30 0 25 0 0 20 0 0 0 0 0 0 0 0 0 0 0 31 0 0 32 26 
		3 0 0 0 0 0 0 0 0 40 0 0 0 0 0 0 0 0 0 0 0 0 0 0 0 39 0 22 0 0 0 0 0 0 0 0 30 0 0 0 0 0 0 0 0 0 0 0 0 0 0 27 0 0 
		4 0 0 0 0 0 0 0 0 0 0 0 0 0 0 0 0 31 0 0 0 0 0 0 0 0 21 0 29 0 28 0 0 0 0 0 0 0 21 34 0 0 0 0 0 0 0 29 0 22 0 0 0 0 
		5 34 0 0 0 0 0 0 0 0 0 30 0 0 0 0 0 31 0 0 0 0 0 0 0 0 0 0 0 0 0 32 0 0 0 0 0 0 0 0 29 0 0 0 0 0 0 29 0 0 0 0 0 0 
		6 0 0 0 0 0 0 0 0 0 35 0 0 0 0 0 0 0 0 0 0 0 30 0 0 31 0 0 0 0 0 0 0 0 0 0 37 0 0 0 40 21 0 24 0 0 0 0 0 0 0 0 0 25 
		7 0 27 0 0 0 0 0 0 0 0 22 0 29 0 0 0 0 0 0 0 0 0 0 39 0 24 0 0 0 0 0 0 0 0 32 0 0 0 0 0 0 28 0 0 0 0 0 0 0 0 0 0 0 
		8 0 0 0 40 0 0 0 0 0 0 0 0 0 0 0 0 0 32 0 25 0 0 0 0 0 0 0 0 0 0 0 0 0 0 0 0 0 0 0 0 0 0 0 0 0 0 0 0 0 0 0 0 0 
		9 0 0 0 0 0 0 35 0 0 0 0 0 0 0 0 0 0 0 0 0 0 0 0 0 31 0 0 0 0 0 0 0 0 0 0 0 0 0 0 0 0 0 0 0 0 0 24 0 0 0 0 0 0 
		10 0 0 0 0 0 30 0 22 0 0 0 0 0 32 0 0 0 0 0 0 0 0 0 0 0 0 0 0 35 40 31 34 0 0 0 0 0 0 0 0 0 0 0 28 0 0 0 0 0 0 0 0 0 
		11 0 0 25 0 0 0 0 0 0 0 0 0 0 0 29 0 0 0 0 36 0 0 0 0 0 0 0 0 0 38 34 37 0 0 0 0 0 0 0 0 0 0 0 0 31 0 0 0 26 0 0 0 0 
		12 0 0 0 0 0 0 0 29 0 0 0 0 0 0 0 0 0 0 0 0 0 0 0 0 0 30 0 0 0 40 0 0 0 0 0 0 0 0 0 0 0 0 28 0 0 0 22 0 0 36 0 0 33 
		13 38 0 20 0 0 0 0 0 0 0 32 0 0 0 0 0 0 0 0 0 0 0 0 0 0 0 0 0 0 0 0 26 0 0 0 0 36 0 0 30 0 0 0 0 0 0 0 0 0 0 0 0 0 
		14 24 0 0 0 0 0 0 0 0 0 0 29 0 0 0 0 38 0 0 0 0 0 0 0 0 0 30 0 0 0 0 0 0 0 28 0 0 0 0 0 0 0 0 0 0 0 0 0 0 0 0 0 0 
		15 0 0 0 0 0 0 0 0 0 0 0 0 0 0 0 0 0 0 0 0 0 0 0 0 0 0 0 23 0 0 0 0 0 0 0 0 0 39 0 0 0 0 0 0 0 0 0 0 0 0 0 0 0 
		16 37 23 0 0 31 31 0 0 0 0 0 0 0 0 38 0 0 0 0 0 0 0 0 22 0 0 0 0 20 0 0 0 0 0 0 0 0 0 0 0 0 21 0 22 0 0 0 0 40 0 0 30 0 
		17 26 0 0 0 0 0 0 0 32 0 0 0 0 0 0 0 0 0 0 0 0 0 0 0 0 0 0 0 0 0 0 0 0 0 0 0 0 0 0 0 35 27 0 0 0 0 0 0 26 0 0 32 0 
		18 0 0 0 0 0 0 0 0 0 0 0 0 0 0 0 0 0 0 0 0 0 0 0 0 0 0 0 0 0 0 0 0 0 23 0 0 0 0 0 0 0 0 0 0 0 0 0 0 0 0 0 0 0 
		19 0 0 28 0 0 0 0 0 25 0 0 36 0 0 0 0 0 0 0 0 0 0 0 0 0 0 0 0 37 0 0 0 0 0 0 26 0 0 0 0 0 0 0 35 0 25 0 0 0 0 37 0 25 
		20 0 0 0 0 0 0 0 0 0 0 0 0 0 0 0 0 0 0 0 0 0 0 0 0 0 27 0 0 0 0 0 0 0 0 0 0 0 0 0 0 0 0 0 0 0 0 0 0 0 0 0 0 0 
		21 0 0 0 0 0 0 30 0 0 0 0 0 0 0 0 0 0 0 0 0 0 0 25 0 0 0 0 0 0 0 0 0 35 0 0 38 0 0 0 0 0 0 38 0 0 0 0 0 0 37 0 0 33 
		22 24 0 0 0 0 0 0 0 0 0 0 0 0 0 0 0 0 0 0 0 0 25 0 0 0 0 0 36 0 0 31 0 39 0 0 30 0 0 0 0 0 0 36 0 0 0 0 0 0 0 0 0 0 
		23 0 0 21 0 0 0 0 39 0 0 0 0 0 0 0 0 22 0 0 0 0 0 0 0 0 0 0 0 0 0 0 0 0 0 23 0 0 0 0 34 0 0 0 0 0 0 0 0 0 0 0 0 0 
		24 0 0 0 39 0 0 31 0 0 31 0 0 0 0 0 0 0 0 0 0 0 0 0 0 0 0 0 0 0 0 0 0 0 0 0 0 0 0 0 0 0 0 0 0 0 0 0 0 0 0 0 0 0 
		25 0 0 0 0 21 0 0 24 0 0 0 0 30 0 0 0 0 0 0 0 27 0 0 0 0 0 0 0 0 0 0 0 0 0 27 0 0 0 23 32 0 0 0 26 0 0 0 0 0 0 0 0 0 
		26 34 0 0 22 0 0 0 0 0 0 0 0 0 0 30 0 0 0 0 0 0 0 0 0 0 0 0 0 0 0 0 0 0 0 0 0 0 0 0 0 0 0 0 27 0 0 39 0 0 0 0 0 0 
		27 0 0 0 0 29 0 0 0 0 0 0 0 0 0 0 23 0 0 0 0 0 0 36 0 0 0 0 0 0 0 0 0 0 32 0 0 0 0 0 0 0 0 0 0 0 0 0 21 0 0 0 0 0 
		28 0 0 0 0 0 0 0 0 0 0 35 0 0 0 0 0 20 0 0 37 0 0 0 0 0 0 0 0 0 0 0 0 0 0 39 0 0 0 0 0 0 0 0 26 0 0 0 0 0 0 0 31 0 
		29 0 0 22 0 28 0 0 0 0 0 40 38 40 0 0 0 0 0 0 0 0 0 0 0 0 0 0 0 0 0 0 0 0 0 0 0 0 0 0 25 0 0 0 0 0 32 0 35 0 0 0 24 0 
		30 0 0 0 0 0 32 0 0 0 0 31 34 0 0 0 0 0 0 0 0 0 0 31 0 0 0 0 0 0 0 0 0 0 0 0 0 0 0 28 39 0 23 0 0 0 0 0 0 0 0 0 0 0 
		31 38 0 30 0 0 0 0 0 0 0 34 37 0 26 0 0 0 0 0 0 0 0 0 0 0 0 0 0 0 0 0 0 0 0 0 0 37 0 0 0 0 0 0 0 20 0 0 0 0 0 0 0 0 
		32 0 0 0 0 0 0 0 0 0 0 0 0 0 0 0 0 0 0 0 0 0 35 39 0 0 0 0 0 0 0 0 0 0 0 0 0 0 0 0 0 0 0 27 0 0 39 0 0 0 0 0 0 0 
		33 0 0 25 0 0 0 0 0 0 0 0 0 0 0 0 0 0 0 23 0 0 0 0 0 0 0 0 32 0 0 0 0 0 0 30 0 0 23 0 0 27 0 0 0 0 0 0 37 27 0 0 0 0 
		34 0 0 0 0 0 0 0 32 0 0 0 0 0 0 28 0 0 0 0 0 0 0 0 23 0 27 0 0 39 0 0 0 0 30 0 0 25 0 0 27 0 0 0 0 38 0 0 0 0 0 0 0 0 
		35 0 0 0 30 0 0 37 0 0 0 0 0 0 0 0 0 0 0 0 26 0 38 30 0 0 0 0 0 0 0 0 0 0 0 0 0 0 0 0 0 0 0 0 0 0 0 0 0 0 0 0 0 0 
		36 0 0 20 0 0 0 0 0 0 0 0 0 0 36 0 0 0 0 0 0 0 0 0 0 0 0 0 0 0 0 0 37 0 0 25 0 0 0 38 27 0 0 0 0 23 0 0 0 0 0 0 0 0 
		37 0 0 0 0 21 0 0 0 0 0 0 0 0 0 0 39 0 0 0 0 0 0 0 0 0 0 0 0 0 0 0 0 0 23 0 0 0 0 0 0 0 0 0 20 0 40 0 38 0 0 0 0 0 
		38 0 0 0 0 34 0 0 0 0 0 0 0 0 0 0 0 0 0 0 0 0 0 0 0 0 23 0 0 0 0 28 0 0 0 0 0 38 0 0 0 0 0 0 0 0 0 0 0 0 0 0 0 0 
		39 0 0 0 0 0 29 40 0 0 0 0 0 0 30 0 0 0 0 0 0 0 0 0 34 0 32 0 0 0 25 39 0 0 0 27 0 27 0 0 0 0 0 0 0 21 0 0 0 0 0 0 0 0 
		40 0 0 0 0 0 0 21 0 0 0 0 0 0 0 0 0 0 35 0 0 0 0 0 0 0 0 0 0 0 0 0 0 0 27 0 0 0 0 0 0 0 0 0 0 0 0 0 29 0 21 36 0 24 
		41 35 0 0 0 0 0 0 28 0 0 0 0 0 0 0 0 21 27 0 0 0 0 0 0 0 0 0 0 0 0 23 0 0 0 0 0 0 0 0 0 0 0 0 0 23 0 0 0 0 0 0 0 0 
		42 29 0 0 0 0 0 24 0 0 0 0 0 28 0 0 0 0 0 0 0 0 38 36 0 0 0 0 0 0 0 0 0 27 0 0 0 0 0 0 0 0 0 0 0 0 0 0 0 33 0 27 0 0 
		43 0 0 0 0 0 0 0 0 0 0 28 0 0 0 0 0 22 0 0 35 0 0 0 0 0 26 27 0 26 0 0 0 0 0 0 0 0 20 0 0 0 0 0 0 35 0 0 0 0 0 0 29 0 
		44 0 0 0 0 0 0 0 0 0 0 0 31 0 0 0 0 0 0 0 0 0 0 0 0 0 0 0 0 0 0 0 20 0 0 38 0 23 0 0 21 0 23 0 35 0 0 0 36 0 0 0 30 0 
		45 0 0 0 0 0 0 0 0 0 0 0 0 0 0 0 0 0 0 0 25 0 0 0 0 0 0 0 0 0 32 0 0 39 0 0 0 0 40 0 0 0 0 0 0 0 0 0 0 0 0 0 0 0 
		46 0 0 0 0 29 29 0 0 0 24 0 0 22 0 0 0 0 0 0 0 0 0 0 0 0 0 39 0 0 0 0 0 0 0 0 0 0 0 0 0 0 0 0 0 0 0 0 0 0 0 0 0 0 
		47 0 23 0 0 0 0 0 0 0 0 0 0 0 0 0 0 0 0 0 0 0 0 0 0 0 0 0 21 0 35 0 0 0 37 0 0 0 38 0 0 29 0 0 0 36 0 0 0 0 0 0 0 0 
		48 37 0 31 0 22 0 0 0 0 0 0 26 0 0 0 0 40 26 0 0 0 0 0 0 0 0 0 0 0 0 0 0 0 27 0 0 0 0 0 0 0 0 33 0 0 0 0 0 0 0 33 0 0 
		49 0 0 0 0 0 0 0 0 0 0 0 0 36 0 0 0 0 0 0 0 0 37 0 0 0 0 0 0 0 0 0 0 0 0 0 0 0 0 0 0 21 0 0 0 0 0 0 0 0 0 0 0 0 
		50 25 0 0 27 0 0 0 0 0 0 0 0 0 0 0 0 0 0 0 37 0 0 0 0 0 0 0 0 0 0 0 0 0 0 0 0 0 0 0 0 36 0 27 0 0 0 0 0 33 0 0 0 0 
		51 0 0 32 0 0 0 0 0 0 0 0 0 0 0 0 0 30 32 0 0 0 0 0 0 0 0 0 0 31 24 0 0 0 0 0 0 0 0 0 0 0 0 0 29 30 0 0 0 0 0 0 0 0 
		52 0 0 26 0 0 0 25 0 0 0 0 0 33 0 0 0 0 0 0 25 0 33 0 0 0 0 0 0 0 0 0 0 0 0 0 0 0 0 0 0 24 0 0 0 0 0 0 0 0 0 0 0 0 
;
